NAME : pr136
TYPE : OP
DIMENSION : 136
COST_LIMIT : 33871
ROUTE_NODES : 44
ROUTE_SCORE : 2820
ROUTE_COST : 33693
NODE_SEQUENCE_SECTION
1
6
17
19
28
38
40
51
53
65
72
84
86
99
106
118
120
130
129
121
117
122
128
127
123
116
104
101
89
82
79
67
55
48
36
33
21
25
26
15
20
16
8
7
-1
DEPOT_SECTION
1
-1
EOF
